\ LP format - for model browsing. Use MPS format to capture full model detail.
Minimize
 
Subject To
 R0: 20 Y[0] + 30 Y[1] + 32 Y[2] + 16 Y[3] + 5 Y[4] <= 64
 R1: 24 Y[0] + 8 Y[1] + 16 Y[2] + 20 Y[3] + 5 Y[4] <= 32
 R2: 2 Y[1] + Y[2] + 0.05 Y[3] + 2.8 Y[4] <= 4
Bounds
Generals
 Y[0] Y[1] Y[2] Y[3] Y[4]
End
